p cnf 26 178
17 -19 16 -20 18 0
19 18 -16 -17 20 0
3 5 2 1 -4 0
-2 3 5 -4 1 0
11 -14 15 -12 13 0
2 -5 1 4 3 0
-12 11 13 -15 14 0
-18 -19 -20 -16 17 0
-26 -24 -21 25 22 0
-14 11 -12 -13 15 0
-17 18 -16 -19 20 0
3 -4 2 -1 5 0
-26 -23 -21 25 22 0
26 24 25 23 21 0
5 -2 -3 4 -1 0
12 -15 13 -11 -14 0
-17 19 18 -20 16 0
-14 -13 15 -12 -11 0
-10 7 -9 -8 6 0
7 -9 6 -8 10 0
-6 9 10 -8 7 0
4 2 5 -3 -1 0
18 20 -19 16 17 0
-7 -8 6 -10 -9 0
10 8 9 6 7 0
-4 1 2 -5 3 0
-23 -26 21 -25 -24 0
4 -5 -1 -2 3 0
-1 5 -2 -4 -3 0
-14 -11 13 -12 -15 0
-14 12 -11 -15 -13 0
-23 -26 24 25 22 0
9 10 -7 6 8 0
-12 -14 -15 13 11 0
-9 -6 -8 10 -7 0
-3 1 -5 2 4 0
-24 -21 22 -23 -25 0
2 -5 -4 -3 1 0
10 -8 6 -7 9 0
-22 -23 26 21 25 0
-11 -13 12 14 -15 0
-2 5 -4 3 -1 0
17 18 -20 -19 -16 0
-20 -17 19 -18 16 0
-23 -21 -26 -25 24 0
23 -22 21 -24 -26 0
-16 -19 17 -18 20 0
13 -12 -15 -11 14 0
17 -16 -18 19 -20 0
8 18 -13 21 -3 0
26 -25 -24 -21 23 0
-6 -9 -10 8 -7 0
9 -10 7 8 -6 0
20 -18 -16 -17 -19 0
1 -2 4 3 -5 0
23 26 -21 -22 -25 0
5 1 4 3 -2 0
-26 -21 -25 -23 -24 0
25 -26 22 23 21 0
25 -21 23 -22 26 0
-21 -24 -22 25 -23 0
20 17 -18 16 -19 0
-12 -13 -15 11 -14 0
2 -5 -1 4 -3 0
4 -1 -2 -5 -3 0
-8 -3 -26 12 -17 0
26 -22 -25 -23 -24 0
-15 11 -14 12 13 0
19 -18 20 -17 -16 0
-13 15 -12 11 14 0
12 11 15 14 13 0
-10 9 -7 6 -8 0
18 -20 17 16 19 0
-3 -4 2 5 -1 0
5 4 2 3 -1 0
15 -13 12 -11 14 0
13 15 12 11 -14 0
21 26 24 -25 22 0
-8 -9 -6 7 -10 0
-16 19 18 -20 -17 0
26 22 -21 -24 -23 0
-1 4 5 3 -2 0
-17 -19 16 -20 18 0
-3 -1 -4 -5 -2 0
-26 24 25 -23 21 0
-5 1 -2 -3 4 0
-9 6 8 -7 -10 0
-18 20 19 16 17 0
8 10 -9 7 -6 0
15 13 -11 -14 12 0
-21 23 22 -26 -24 0
15 -11 -14 12 -13 0
6 9 -10 7 -8 0
9 8 10 7 -6 0
-19 -20 18 -17 -16 0
9 -10 -7 8 6 0
-8 -7 -9 6 10 0
-10 9 -8 -6 7 0
-13 -12 -11 -15 -14 0
-7 -8 9 -6 10 0
-21 -22 -23 24 26 0
3 -1 -4 2 -5 0
-6 -7 10 -9 8 0
11 -13 12 -14 -15 0
-26 -22 -25 24 -21 0
6 -8 9 10 7 0
1 4 2 5 -3 0
18 -19 -16 17 20 0
25 21 -23 24 22 0
-14 12 15 11 -13 0
-1 -2 -5 3 -4 0
25 -26 21 -24 22 0
1 -4 5 -3 2 0
25 26 -21 -23 22 0
-26 -22 -21 -23 -24 0
-24 25 -26 22 23 0
-19 -20 17 -18 16 0
-17 -20 -16 19 -18 0
2 4 3 -5 -1 0
-7 9 -8 -10 -6 0
21 24 -22 26 -25 0
-24 -26 21 -23 22 0
-25 -26 22 -24 23 0
-6 -8 -9 7 10 0
-3 5 1 -2 4 0
24 25 -21 23 -22 0
-22 -26 24 23 21 0
16 17 19 20 18 0
-16 18 -20 19 17 0
19 17 -18 -20 16 0
15 -12 14 -13 -11 0
21 -22 -25 -26 -24 0
21 26 22 23 25 0
-14 -12 13 15 -11 0
26 21 -25 22 23 0
-15 -12 14 -13 11 0
-26 -23 21 -25 -22 0
-3 -5 -2 -4 1 0
26 -25 22 -24 21 0
-7 19 -4 -14 26 0
-24 -26 -23 22 25 0
-4 -2 5 -3 1 0
26 23 24 21 -25 0
-24 22 -23 -21 25 0
19 16 -18 -17 20 0
9 10 8 -7 -6 0
3 -4 -5 1 -2 0
14 11 -15 13 12 0
15 11 -13 14 12 0
13 -11 15 12 14 0
24 25 21 23 -26 0
21 -25 26 23 -22 0
-22 -26 -23 -25 24 0
-17 -19 18 16 20 0
-23 -26 21 22 -25 0
-19 -17 16 -18 20 0
-26 24 -22 -21 -23 0
9 -10 -7 8 -6 0
25 26 -21 -23 24 0
22 9 19 -14 -4 0
5 2 1 4 3 0
-23 -26 21 -22 -24 0
-10 9 8 6 7 0
-21 24 22 25 -26 0
-21 -23 -24 -26 22 0
21 -24 23 22 -26 0
-23 -26 -22 21 25 0
-9 6 7 8 -10 0
14 -15 12 11 -13 0
-21 -22 23 -25 24 0
26 21 -22 -24 -25 0
24 21 -22 23 26 0
-24 22 23 -25 21 0
-23 24 -25 26 -21 0
-26 -24 25 -22 -23 0
23 24 21 -22 -25 0
23 -22 26 -24 25 0
-20 -18 16 -19 -17 0
